<number of tasks>
58

<cycle time>
71

<task times>
1 10
2 53
3 41
4 36
5 35
6 17
7 34
8 23
9 14
10 52
11 33
12 34
13 12
14 52
15 12
16 33
17 44
18 7
19 15
20 13
21 29
22 37
23 43
24 23
25 24
26 9
27 16
28 12
29 26
30 22
31 51
32 47
33 34
34 23
35 12
36 52
37 12
38 33
39 44
40 7
41 15
42 13
43 29
44 37
45 43
46 23
47 24
48 9
49 16
50 12
51 26
52 12
53 52
54 12
55 33
56 44
57 7
58 15

<precedence relations>
1,9
2,25
3,21
3,22
4,10
5,36
6,23
6,24
7,43
8,44
9,11
11,13
11,14
11,15
12,17
13,17
14,17
15,17
16,18
17,20
18,19
19,23
20,21
20,25
21,26
21,44
22,27
23,31
24,31
25,38
26,29
27,30
28,32
28,33
29,31
30,34
31,36
32,45
33,35
34,36
35,43
36,37
36,38
37,39
37,40
37,41
38,52
39,43
40,43
41,42
42,43
43,45
44,45
45,46
45,48
45,49
46,47
46,50
47,51
48,55
49,58
50,58
51,52
52,53
53,54
54,55
54,56
55,57
56,57
57,58

<setup times forward>
1,2:2
1,3:1
1,4:1
1,5:1
1,6:1
1,8:2
1,9:1
1,10:1
1,16:3
1,18:1
1,19:1
1,22:2
1,23:1
1,24:1
1,27:3
1,28:1
1,32:2
1,35:3
2,1:2
2,3:3
2,4:1
2,5:1
2,6:3
2,7:2
2,8:4
2,9:1
2,10:3
2,11:5
2,12:2
2,13:1
2,15:5
2,16:5
2,18:3
2,19:1
2,22:4
2,23:1
2,24:3
2,25:3
2,26:4
2,27:5
2,28:1
2,29:5
2,30:2
2,33:2
2,34:2
2,35:5
2,36:1
2,37:5
2,39:3
2,40:4
2,41:5
2,42:5
2,43:2
2,44:2
2,45:3
2,46:1
2,47:4
2,48:4
2,49:3
2,50:1
2,51:2
3,1:1
3,2:3
3,4:2
3,5:2
3,7:1
3,8:1
3,9:2
3,11:2
3,12:1
3,13:2
3,14:3
3,15:2
3,16:2
3,17:3
3,19:2
3,20:3
3,21:3
3,22:1
3,23:2
3,28:2
3,32:3
3,33:1
3,35:2
4,1:1
4,2:1
4,3:2
4,6:2
4,7:1
4,8:3
4,10:2
4,11:4
4,12:1
4,14:1
4,15:4
4,16:4
4,17:1
4,18:2
4,20:1
4,21:1
4,22:3
4,24:2
4,25:2
4,26:3
4,27:4
4,29:4
4,30:1
4,31:1
4,32:1
4,33:1
4,34:1
4,35:4
4,37:4
4,38:1
4,39:2
4,40:3
4,41:4
4,42:4
4,43:1
4,44:1
4,45:2
4,47:3
4,48:3
4,49:2
4,51:1
4,52:3
4,53:1
4,54:4
4,56:1
4,57:2
4,58:4
5,1:1
5,2:1
5,3:2
5,6:2
5,7:1
5,8:3
5,10:2
5,11:4
5,12:1
5,14:1
5,15:4
5,16:4
5,17:1
5,18:2
5,20:1
5,21:1
5,22:3
5,24:2
5,25:2
5,26:3
5,27:4
5,29:4
5,30:1
5,31:1
5,32:1
5,33:1
5,34:1
5,35:4
5,44:1
6,1:1
6,2:3
6,4:2
6,5:2
6,7:1
6,8:1
6,9:2
6,11:2
6,12:1
6,13:2
6,14:3
6,15:2
6,16:2
6,17:3
6,19:2
6,20:3
6,21:3
6,22:1
6,23:2
6,26:1
6,27:2
6,28:2
6,29:2
6,30:1
6,32:3
6,33:1
6,34:1
6,35:2
6,44:1
7,2:2
7,3:1
7,4:1
7,5:1
7,6:1
7,8:2
7,9:1
7,10:1
7,11:3
7,13:1
7,14:2
7,15:3
7,16:3
7,17:2
7,18:1
7,19:1
7,20:2
7,21:2
7,22:2
7,23:1
7,24:1
7,25:1
7,26:2
7,27:3
7,28:1
7,29:3
7,31:2
7,32:2
7,35:3
7,36:1
7,37:3
7,38:2
7,39:1
7,40:2
7,41:3
7,42:3
8,1:2
8,2:4
8,3:1
8,4:3
8,5:3
8,6:1
8,7:2
8,9:3
8,10:1
8,11:1
8,12:2
8,13:3
8,14:4
8,15:1
8,16:1
8,17:4
8,18:1
8,19:3
8,20:4
8,21:4
8,23:3
8,24:1
8,25:1
8,27:1
8,28:3
8,29:1
8,30:2
8,31:4
8,32:4
8,33:2
8,34:2
8,35:1
8,36:3
8,37:1
8,38:4
8,39:1
8,41:1
8,42:1
8,43:2
8,44:2
9,2:1
9,3:2
9,6:2
9,7:1
9,8:3
9,10:2
9,11:4
9,12:1
9,16:4
9,18:2
9,22:3
9,24:2
9,27:4
9,30:1
9,32:1
9,33:1
9,34:1
9,35:4
10,1:1
10,2:3
10,5:2
10,7:1
10,8:1
10,9:2
10,11:2
10,12:1
10,13:2
10,14:3
10,15:2
10,16:2
10,17:3
10,19:2
10,20:3
10,21:3
10,22:1
10,23:2
10,26:1
10,27:2
10,28:2
10,29:2
10,30:1
10,31:3
10,32:3
10,33:1
10,34:1
10,35:2
10,36:2
10,37:2
10,38:3
10,40:1
10,41:2
10,42:2
10,43:1
10,44:1
10,46:2
10,47:1
10,48:1
10,50:2
10,51:1
10,52:1
10,53:1
10,54:2
10,55:2
10,56:3
10,58:2
11,2:5
11,3:2
11,4:4
11,5:4
11,6:2
11,7:3
11,8:1
11,10:2
11,12:3
11,13:4
11,14:5
11,18:2
11,19:4
11,22:1
11,23:4
11,24:2
11,28:4
11,30:3
11,32:5
11,33:3
11,34:3
12,2:2
12,3:1
12,4:1
12,5:1
12,6:1
12,8:2
12,9:1
12,10:1
12,11:3
12,13:1
12,14:2
12,15:3
12,16:3
12,17:2
12,18:1
12,19:1
12,22:2
12,23:1
12,24:1
12,27:3
12,28:1
12,32:2
12,35:3
13,2:1
13,3:2
13,6:2
13,7:1
13,8:3
13,10:2
13,12:1
13,14:1
13,15:4
13,16:4
13,17:1
13,18:2
13,22:3
13,24:2
13,27:4
13,30:1
13,32:1
13,33:1
13,34:1
13,35:4
14,3:3
14,4:1
14,5:1
14,6:3
14,7:2
14,8:4
14,10:3
14,12:2
14,13:1
14,15:5
14,16:5
14,18:3
14,19:1
14,22:4
14,23:1
14,24:3
14,27:5
14,28:1
14,30:2
14,33:2
14,34:2
14,35:5
15,2:5
15,3:2
15,4:4
15,5:4
15,6:2
15,7:3
15,8:1
15,10:2
15,12:3
15,13:4
15,14:5
15,17:5
15,18:2
15,19:4
15,22:1
15,23:4
15,24:2
15,28:4
15,30:3
15,32:5
15,33:3
15,34:3
16,1:3
16,2:5
16,3:2
16,4:4
16,5:4
16,6:2
16,7:3
16,8:1
16,9:4
16,10:2
16,12:3
16,13:4
16,14:5
16,17:5
16,18:2
16,20:5
16,21:5
16,22:1
16,24:2
16,25:2
16,26:1
16,28:4
16,30:3
16,32:5
16,33:3
16,34:3
16,44:3
17,3:3
17,4:1
17,5:1
17,6:3
17,7:2
17,8:4
17,10:3
17,16:5
17,18:3
17,19:1
17,22:4
17,23:1
17,24:3
17,27:5
17,28:1
17,30:2
17,33:2
17,34:2
17,35:5
18,1:1
18,2:3
18,4:2
18,5:2
18,7:1
18,8:1
18,9:2
18,11:2
18,12:1
18,13:2
18,14:3
18,15:2
18,17:3
18,19:2
18,20:3
18,21:3
18,22:1
18,26:1
18,27:2
18,28:2
18,29:2
18,30:1
18,32:3
18,33:1
18,34:1
18,35:2
18,44:1
19,1:1
19,2:1
19,3:2
19,6:2
19,7:1
19,8:3
19,10:2
19,11:4
19,12:1
19,14:1
19,15:4
19,17:1
19,20:1
19,21:1
19,22:3
19,24:2
19,25:2
19,26:3
19,27:4
19,29:4
19,30:1
19,32:1
19,33:1
19,34:1
19,35:4
19,44:1
20,3:3
20,4:1
20,5:1
20,6:3
20,7:2
20,8:4
20,10:3
20,16:5
20,18:3
20,19:1
20,22:4
20,23:1
20,24:3
20,25:3
20,27:5
20,28:1
20,30:2
20,33:2
20,34:2
20,35:5
21,4:1
21,5:1
21,6:3
21,7:2
21,8:4
21,10:3
21,16:5
21,18:3
21,19:1
21,22:4
21,23:1
21,24:3
21,25:3
21,26:4
21,27:5
21,28:1
21,30:2
21,33:2
21,34:2
21,35:5
21,44:2
22,1:2
22,2:4
22,4:3
22,5:3
22,6:1
22,7:2
22,9:3
22,10:1
22,11:1
22,12:2
22,13:3
22,14:4
22,15:1
22,16:1
22,17:4
22,18:1
22,19:3
22,20:4
22,21:4
22,23:3
22,24:1
22,25:1
22,27:1
22,28:3
22,29:1
22,31:4
22,32:4
22,33:2
22,35:1
22,44:2
23,1:1
23,2:1
23,3:2
23,7:1
23,8:3
23,10:2
23,11:4
23,12:1
23,14:1
23,15:4
23,17:1
23,20:1
23,21:1
23,22:3
23,24:2
23,25:2
23,26:3
23,27:4
23,29:4
23,30:1
23,31:1
23,32:1
23,33:1
23,34:1
23,35:4
23,44:1
24,1:1
24,2:3
24,4:2
24,5:2
24,7:1
24,8:1
24,9:2
24,11:2
24,12:1
24,13:2
24,14:3
24,15:2
24,16:2
24,17:3
24,19:2
24,20:3
24,21:3
24,22:1
24,23:2
24,26:1
24,27:2
24,28:2
24,29:2
24,30:1
24,31:3
24,32:3
24,33:1
24,34:1
24,35:2
24,44:1
25,4:2
25,5:2
25,7:1
25,8:1
25,16:2
25,19:2
25,21:3
25,22:1
25,23:2
25,26:1
25,27:2
25,28:2
25,29:2
25,30:1
25,31:3
25,32:3
25,33:1
25,34:1
25,35:2
25,36:2
25,37:2
25,38:3
25,40:1
25,41:2
25,42:2
25,43:1
25,44:1
25,46:2
25,47:1
25,48:1
25,50:2
25,51:1
26,2:4
26,4:3
26,5:3
26,6:1
26,7:2
26,10:1
26,16:1
26,18:1
26,19:3
26,23:3
26,24:1
26,25:1
26,27:1
26,28:3
26,29:1
26,30:2
26,32:4
26,33:2
26,34:2
26,35:1
26,44:2
27,1:3
27,2:5
27,4:4
27,5:4
27,6:2
27,7:3
27,8:1
27,9:4
27,10:2
27,12:3
27,13:4
27,14:5
27,17:5
27,18:2
27,19:4
27,20:5
27,21:5
27,23:4
27,24:2
27,25:2
27,26:1
27,28:4
27,30:3
27,31:5
27,32:5
27,33:3
27,44:3
28,1:1
28,2:1
28,3:2
28,6:2
28,7:1
28,8:3
28,10:2
28,11:4
28,12:1
28,14:1
28,15:4
28,16:4
28,17:1
28,18:2
28,20:1
28,21:1
28,22:3
28,24:2
28,25:2
28,26:3
28,27:4
28,29:4
28,30:1
28,31:1
28,32:1
28,33:1
28,34:1
28,37:4
28,38:1
28,39:2
28,40:3
28,41:4
28,42:4
28,44:1
29,2:5
29,4:4
29,5:4
29,6:2
29,7:3
29,8:1
29,10:2
29,18:2
29,19:4
29,22:1
29,23:4
29,24:2
29,25:2
29,28:4
29,30:3
29,31:5
29,32:5
29,33:3
29,34:3
29,44:3
30,2:2
30,4:1
30,5:1
30,6:1
30,8:2
30,9:1
30,10:1
30,11:3
30,13:1
30,14:2
30,15:3
30,16:3
30,17:2
30,18:1
30,19:1
30,20:2
30,21:2
30,23:1
30,24:1
30,25:1
30,26:2
30,28:1
30,29:3
30,31:2
30,32:2
30,35:3
31,4:1
31,5:1
31,7:2
31,8:4
31,10:3
31,22:4
31,25:3
31,27:5
31,28:1
31,30:2
31,33:2
31,34:2
31,35:5
31,36:1
31,44:2
32,1:2
32,3:3
32,4:1
32,5:1
32,6:3
32,7:2
32,8:4
32,9:1
32,10:3
32,11:5
32,12:2
32,13:1
32,15:5
32,16:5
32,18:3
32,19:1
32,22:4
32,23:1
32,24:3
32,25:3
32,26:4
32,27:5
32,29:5
32,30:2
32,33:2
32,34:2
32,35:5
32,36:1
32,37:5
32,39:3
32,40:4
32,41:5
32,42:5
32,43:2
32,44:2
32,45:3
33,2:2
33,3:1
33,4:1
33,5:1
33,6:1
33,8:2
33,9:1
33,10:1
33,11:3
33,13:1
33,14:2
33,15:3
33,16:3
33,17:2
33,18:1
33,19:1
33,20:2
33,21:2
33,22:2
33,23:1
33,24:1
33,25:1
33,26:2
33,27:3
33,29:3
33,31:2
33,32:2
33,35:3
33,36:1
33,37:3
33,38:2
33,39:1
33,40:2
33,41:3
33,42:3
34,2:2
34,4:1
34,5:1
34,6:1
34,8:2
34,9:1
34,10:1
34,11:3
34,13:1
34,14:2
34,15:3
34,16:3
34,17:2
34,18:1
34,19:1
34,20:2
34,21:2
34,23:1
34,24:1
34,25:1
34,26:2
34,28:1
34,29:3
34,31:2
34,32:2
34,35:3
34,36:1
35,1:3
35,2:5
35,3:2
35,4:4
35,5:4
35,6:2
35,7:3
35,8:1
35,9:4
35,10:2
35,12:3
35,13:4
35,14:5
35,17:5
35,18:2
35,19:4
35,20:5
35,21:5
35,22:1
35,23:4
35,24:2
35,25:2
35,26:1
35,30:3
35,31:5
35,32:5
35,34:3
35,36:4
35,38:5
35,39:2
35,40:1
35,43:3
35,44:3
36,2:1
36,7:1
36,8:3
36,10:2
36,25:2
36,32:1
36,33:1
36,35:4
36,37:4
36,38:1
36,44:1
37,2:5
37,4:4
37,7:3
37,8:1
37,10:2
37,25:2
37,28:4
37,32:5
37,33:3
37,38:5
37,39:2
37,40:1
37,44:3
38,4:1
38,7:2
38,8:4
38,10:3
38,28:1
38,33:2
38,35:5
38,37:5
38,39:3
38,40:4
38,41:5
38,42:5
38,43:2
38,44:2
38,45:3
38,46:1
38,47:4
38,48:4
38,49:3
38,50:1
38,51:2
38,52:4
39,2:3
39,4:2
39,7:1
39,8:1
39,28:2
39,32:3
39,33:1
39,35:2
39,38:3
39,40:1
39,41:2
39,42:2
39,43:1
39,44:1
40,2:4
40,4:3
40,7:2
40,10:1
40,25:1
40,28:3
40,32:4
40,33:2
40,35:1
40,38:4
40,39:1
40,41:1
40,42:1
40,43:2
40,44:2
41,2:5
41,4:4
41,7:3
41,8:1
41,10:2
41,25:2
41,28:4
41,32:5
41,33:3
41,38:5
41,39:2
41,40:1
41,44:3
42,2:5
42,4:4
42,7:3
42,8:1
42,10:2
42,25:2
42,28:4
42,32:5
42,33:3
42,38:5
42,39:2
42,40:1
42,43:3
42,44:3
43,2:2
43,4:1
43,8:2
43,10:1
43,25:1
43,32:2
43,38:2
43,45:1
44,2:2
44,4:1
44,5:1
44,6:1
44,10:1
44,16:3
44,18:1
44,19:1
44,22:2
44,23:1
44,24:1
44,25:1
44,26:2
44,27:3
44,28:1
44,29:3
44,31:2
44,32:2
44,35:3
44,36:1
44,37:3
44,38:2
44,39:1
44,40:2
44,41:3
44,42:3
44,45:1
45,2:3
45,4:2
45,38:3
45,46:2
45,48:1
46,2:1
46,10:2
46,25:2
46,38:1
46,47:3
46,48:3
46,49:2
47,2:4
47,4:3
47,10:1
47,25:1
47,38:4
47,49:1
47,50:3
47,51:2
48,2:4
48,4:3
48,10:1
48,25:1
48,38:4
48,46:3
48,49:1
48,50:3
48,51:2
48,53:2
48,54:1
48,55:3
48,56:4
49,2:3
49,4:2
49,38:3
49,46:2
49,47:1
49,48:1
49,50:2
49,51:1
49,52:1
49,53:1
49,54:2
49,55:2
49,56:3
49,58:2
50,2:1
50,10:2
50,25:2
50,38:1
50,47:3
50,48:3
50,49:2
50,51:1
50,52:3
50,53:1
50,54:4
50,56:1
50,57:2
50,58:4
51,2:2
51,4:1
51,10:1
51,25:1
51,38:2
51,48:2
51,49:1
51,50:1
51,52:2
52,4:3
52,10:1
52,49:1
52,50:3
52,53:2
53,4:1
53,10:1
53,48:2
53,49:1
53,50:1
53,54:3
54,4:4
54,10:2
54,48:1
54,49:2
54,50:4
54,55:4
54,56:5
55,10:2
55,49:2
55,56:1
55,57:2
56,4:1
56,10:3
56,48:4
56,49:3
56,50:1
56,55:1
56,57:3
57,4:2
57,50:2
57,58:2
58,4:4
58,10:2

<setup times backward>
1,1:6
1,2:4
1,3:7
1,4:5
1,5:5
1,6:7
1,7:6
1,8:8
1,10:7
1,12:6
1,16:9
1,18:7
1,19:5
1,22:8
1,23:5
1,24:7
1,27:9
1,28:5
1,30:6
1,32:4
1,33:6
1,34:6
1,35:9
2,1:8
2,2:6
2,3:9
2,4:7
2,5:7
2,6:9
2,7:8
2,8:10
2,9:7
2,10:9
2,11:11
2,12:8
2,13:7
2,14:6
2,15:11
2,16:11
2,17:6
2,18:9
2,19:7
2,20:6
2,21:6
2,22:10
2,23:7
2,24:9
2,26:10
2,27:11
2,28:7
2,29:11
2,30:8
2,31:6
2,32:6
2,33:8
2,34:8
2,35:11
2,36:7
2,37:11
2,39:9
2,40:10
2,41:11
2,42:11
2,43:8
2,44:8
2,45:9
2,46:7
2,47:10
2,48:10
2,49:9
2,50:7
2,51:8
3,1:5
3,2:3
3,3:6
3,4:4
3,5:4
3,6:6
3,7:5
3,8:7
3,9:4
3,10:6
3,11:8
3,12:5
3,13:4
3,14:3
3,15:8
3,16:8
3,17:3
3,18:6
3,19:4
3,20:3
3,23:4
3,24:6
3,25:6
3,28:4
3,32:3
3,33:5
3,35:8
4,1:7
4,2:5
4,3:8
4,4:6
4,5:6
4,6:8
4,7:7
4,8:9
4,9:6
4,11:10
4,12:7
4,13:6
4,14:5
4,15:10
4,16:10
4,17:5
4,18:8
4,19:6
4,20:5
4,21:5
4,22:9
4,23:6
4,24:8
4,25:8
4,26:9
4,27:10
4,28:6
4,29:10
4,30:7
4,31:5
4,32:5
4,33:7
4,34:7
4,35:10
4,36:6
4,37:10
4,38:5
4,39:8
4,40:9
4,41:10
4,42:10
4,43:7
4,44:7
4,45:8
4,46:6
4,47:9
4,48:9
4,49:8
4,50:6
4,51:7
4,52:9
4,53:7
4,54:10
4,55:6
4,56:5
4,57:8
4,58:10
5,1:7
5,2:5
5,3:8
5,4:6
5,5:6
5,6:8
5,7:7
5,8:9
5,9:6
5,10:8
5,11:10
5,12:7
5,13:6
5,14:5
5,15:10
5,16:10
5,17:5
5,18:8
5,19:6
5,20:5
5,21:5
5,22:9
5,23:6
5,24:8
5,25:8
5,26:9
5,27:10
5,28:6
5,29:10
5,30:7
5,31:5
5,32:5
5,33:7
5,34:7
5,35:10
5,44:7
6,1:5
6,2:3
6,3:6
6,4:4
6,5:4
6,6:6
6,7:5
6,8:7
6,9:4
6,10:6
6,11:8
6,12:5
6,13:4
6,14:3
6,15:8
6,16:8
6,17:3
6,18:6
6,19:4
6,20:3
6,21:3
6,22:7
6,25:6
6,26:7
6,27:8
6,28:4
6,29:8
6,30:5
6,32:3
6,33:5
6,34:5
6,35:8
6,44:5
7,1:6
7,2:4
7,3:7
7,4:5
7,5:5
7,6:7
7,7:6
7,8:8
7,9:5
7,10:7
7,11:9
7,12:6
7,13:5
7,14:4
7,15:9
7,16:9
7,17:4
7,18:7
7,19:5
7,20:4
7,21:4
7,22:8
7,23:5
7,24:7
7,25:7
7,26:8
7,27:9
7,28:5
7,29:9
7,30:6
7,31:4
7,32:4
7,33:6
7,34:6
7,35:9
7,36:5
7,37:9
7,38:4
7,39:7
7,40:8
7,41:9
7,42:9
7,44:6
8,1:4
8,2:2
8,3:5
8,4:3
8,5:3
8,6:5
8,7:4
8,8:6
8,9:3
8,10:5
8,11:7
8,12:4
8,13:3
8,14:2
8,15:7
8,16:7
8,17:2
8,18:5
8,19:3
8,20:2
8,21:2
8,22:6
8,23:3
8,24:5
8,25:5
8,26:6
8,27:7
8,28:3
8,29:7
8,30:4
8,31:2
8,32:2
8,33:4
8,34:4
8,35:7
8,36:3
8,37:7
8,38:2
8,39:5
8,40:6
8,41:7
8,42:7
8,43:4
9,1:7
9,2:5
9,3:8
9,4:6
9,5:6
9,6:8
9,7:7
9,8:9
9,9:6
9,10:8
9,12:7
9,16:10
9,18:8
9,19:6
9,22:9
9,23:6
9,24:8
9,27:10
9,28:6
9,30:7
9,32:5
9,33:7
9,34:7
9,35:10
10,1:5
10,2:3
10,3:6
10,4:4
10,5:4
10,6:6
10,7:5
10,8:7
10,9:4
10,10:6
10,11:8
10,12:5
10,13:4
10,14:3
10,15:8
10,16:8
10,17:3
10,18:6
10,19:4
10,20:3
10,21:3
10,22:7
10,23:4
10,24:6
10,25:6
10,26:7
10,27:8
10,28:4
10,29:8
10,30:5
10,31:3
10,32:3
10,33:5
10,34:5
10,35:8
10,36:4
10,37:8
10,38:3
10,39:6
10,40:7
10,41:8
10,42:8
10,43:5
10,44:5
10,45:6
10,46:4
10,47:7
10,48:7
10,49:6
10,50:4
10,51:5
10,52:7
10,53:5
10,54:8
10,55:4
10,56:3
10,57:6
10,58:8
11,1:3
11,2:1
11,3:4
11,4:2
11,5:2
11,6:4
11,7:3
11,8:5
11,9:2
11,10:4
11,11:6
11,12:3
11,16:6
11,18:4
11,19:2
11,22:5
11,23:2
11,24:4
11,27:6
11,28:2
11,30:3
11,32:1
11,33:3
11,34:3
11,35:6
12,1:6
12,2:4
12,3:7
12,4:5
12,5:5
12,6:7
12,7:6
12,8:8
12,9:5
12,10:7
12,11:9
12,12:6
12,13:5
12,14:4
12,15:9
12,16:9
12,18:7
12,19:5
12,22:8
12,23:5
12,24:7
12,27:9
12,28:5
12,30:6
12,32:4
12,33:6
12,34:6
12,35:9
13,1:7
13,2:5
13,3:8
13,4:6
13,5:6
13,6:8
13,7:7
13,8:9
13,9:6
13,10:8
13,11:10
13,12:7
13,13:6
13,14:5
13,15:10
13,16:10
13,18:8
13,19:6
13,22:9
13,23:6
13,24:8
13,27:10
13,28:6
13,30:7
13,32:5
13,33:7
13,34:7
13,35:10
14,1:8
14,2:6
14,3:9
14,4:7
14,5:7
14,6:9
14,7:8
14,8:10
14,9:7
14,10:9
14,11:11
14,12:8
14,13:7
14,14:6
14,15:11
14,16:11
14,18:9
14,19:7
14,22:10
14,23:7
14,24:9
14,27:11
14,28:7
14,30:8
14,32:6
14,33:8
14,34:8
14,35:11
15,1:3
15,2:1
15,3:4
15,4:2
15,5:2
15,6:4
15,7:3
15,8:5
15,9:2
15,10:4
15,11:6
15,12:3
15,13:2
15,14:1
15,15:6
15,16:6
15,18:4
15,19:2
15,22:5
15,23:2
15,24:4
15,27:6
15,28:2
15,30:3
15,32:1
15,33:3
15,34:3
15,35:6
16,1:3
16,2:1
16,3:4
16,4:2
16,5:2
16,6:4
16,7:3
16,8:5
16,9:2
16,10:4
16,11:6
16,12:3
16,13:2
16,14:1
16,15:6
16,16:6
16,17:1
16,20:1
16,21:1
16,22:5
16,24:4
16,25:4
16,26:5
16,27:6
16,28:2
16,29:6
16,30:3
16,32:1
16,33:3
16,34:3
16,35:6
16,44:3
17,1:8
17,2:6
17,3:9
17,4:7
17,5:7
17,6:9
17,7:8
17,8:10
17,9:7
17,10:9
17,11:11
17,12:8
17,13:7
17,14:6
17,15:11
17,16:11
17,17:6
17,18:9
17,19:7
17,22:10
17,23:7
17,24:9
17,27:11
17,28:7
17,30:8
17,32:6
17,33:8
17,34:8
17,35:11
18,1:5
18,2:3
18,3:6
18,4:4
18,5:4
18,6:6
18,7:5
18,8:7
18,9:4
18,10:6
18,11:8
18,12:5
18,13:4
18,14:3
18,15:8
18,16:8
18,17:3
18,18:6
18,20:3
18,21:3
18,22:7
18,24:6
18,25:6
18,26:7
18,27:8
18,28:4
18,29:8
18,30:5
18,32:3
18,33:5
18,34:5
18,35:8
18,44:5
19,1:7
19,2:5
19,3:8
19,4:6
19,5:6
19,6:8
19,7:7
19,8:9
19,9:6
19,10:8
19,11:10
19,12:7
19,13:6
19,14:5
19,15:10
19,16:10
19,17:5
19,18:8
19,19:6
19,20:5
19,21:5
19,22:9
19,24:8
19,25:8
19,26:9
19,27:10
19,28:6
19,29:10
19,30:7
19,32:5
19,33:7
19,34:7
19,35:10
19,44:7
20,1:8
20,2:6
20,3:9
20,4:7
20,5:7
20,6:9
20,7:8
20,8:10
20,9:7
20,10:9
20,11:11
20,12:8
20,13:7
20,14:6
20,15:11
20,16:11
20,17:6
20,18:9
20,19:7
20,20:6
20,22:10
20,23:7
20,24:9
20,27:11
20,28:7
20,30:8
20,32:6
20,33:8
20,34:8
20,35:11
21,1:8
21,2:6
21,3:9
21,4:7
21,5:7
21,6:9
21,7:8
21,8:10
21,9:7
21,10:9
21,11:11
21,12:8
21,13:7
21,14:6
21,15:11
21,16:11
21,17:6
21,18:9
21,19:7
21,20:6
21,21:6
21,22:10
21,23:7
21,24:9
21,25:9
21,27:11
21,28:7
21,30:8
21,32:6
21,33:8
21,34:8
21,35:11
22,1:4
22,2:2
22,3:5
22,4:3
22,5:3
22,6:5
22,7:4
22,8:6
22,9:3
22,10:5
22,11:7
22,12:4
22,13:3
22,14:2
22,15:7
22,16:7
22,17:2
22,18:5
22,19:3
22,20:2
22,21:2
22,22:6
22,23:3
22,24:5
22,25:5
22,26:6
22,28:3
22,29:7
22,31:2
22,32:2
22,33:4
22,35:7
22,44:4
23,1:7
23,2:5
23,3:8
23,4:6
23,5:6
23,6:8
23,7:7
23,8:9
23,9:6
23,10:8
23,11:10
23,12:7
23,13:6
23,14:5
23,15:10
23,16:10
23,17:5
23,18:8
23,19:6
23,20:5
23,21:5
23,22:9
23,23:6
23,24:8
23,25:8
23,26:9
23,27:10
23,28:6
23,29:10
23,30:7
23,32:5
23,33:7
23,34:7
23,35:10
23,44:7
24,1:5
24,2:3
24,3:6
24,4:4
24,5:4
24,6:6
24,7:5
24,8:7
24,9:4
24,10:6
24,11:8
24,12:5
24,13:4
24,14:3
24,15:8
24,16:8
24,17:3
24,18:6
24,19:4
24,20:3
24,21:3
24,22:7
24,23:4
24,24:6
24,25:6
24,26:7
24,27:8
24,28:4
24,29:8
24,30:5
24,32:3
24,33:5
24,34:5
24,35:8
24,44:5
25,1:5
25,2:3
25,3:6
25,4:4
25,5:4
25,6:6
25,7:5
25,8:7
25,9:4
25,10:6
25,11:8
25,12:5
25,13:4
25,14:3
25,15:8
25,16:8
25,17:3
25,18:6
25,19:4
25,20:3
25,21:3
25,22:7
25,23:4
25,24:6
25,25:6
25,26:7
25,27:8
25,28:4
25,29:8
25,30:5
25,31:3
25,32:3
25,33:5
25,34:5
25,35:8
25,36:4
25,37:8
25,39:6
25,40:7
25,41:8
25,42:8
25,43:5
25,44:5
25,45:6
25,46:4
25,47:7
25,48:7
25,49:6
25,50:4
25,51:5
26,1:4
26,2:2
26,3:5
26,4:3
26,5:3
26,6:5
26,7:4
26,8:6
26,9:3
26,10:5
26,11:7
26,12:4
26,13:3
26,14:2
26,15:7
26,16:7
26,17:2
26,18:5
26,19:3
26,20:2
26,21:2
26,22:6
26,23:3
26,24:5
26,25:5
26,26:6
26,27:7
26,28:3
26,30:4
26,32:2
26,33:4
26,34:4
26,35:7
26,44:4
27,1:3
27,2:1
27,3:4
27,4:2
27,5:2
27,6:4
27,7:3
27,8:5
27,9:2
27,10:4
27,11:6
27,12:3
27,13:2
27,14:1
27,15:6
27,16:6
27,17:1
27,18:4
27,19:2
27,20:1
27,21:1
27,22:5
27,23:2
27,24:4
27,25:4
27,26:5
27,27:6
27,28:2
27,29:6
27,31:1
27,32:1
27,33:3
27,35:6
27,44:3
28,1:7
28,2:5
28,3:8
28,4:6
28,5:6
28,6:8
28,7:7
28,8:9
28,9:6
28,10:8
28,11:10
28,12:7
28,13:6
28,14:5
28,15:10
28,16:10
28,17:5
28,18:8
28,19:6
28,20:5
28,21:5
28,22:9
28,23:6
28,24:8
28,25:8
28,26:9
28,27:10
28,28:6
28,29:10
28,30:7
28,31:5
28,34:7
28,36:6
28,37:10
28,38:5
28,39:8
28,40:9
28,41:10
28,42:10
28,44:7
29,1:3
29,2:1
29,3:4
29,4:2
29,5:2
29,6:4
29,7:3
29,8:5
29,9:2
29,10:4
29,11:6
29,12:3
29,13:2
29,14:1
29,15:6
29,16:6
29,17:1
29,18:4
29,19:2
29,20:1
29,21:1
29,22:5
29,23:2
29,24:4
29,25:4
29,26:5
29,27:6
29,28:2
29,29:6
29,30:3
29,32:1
29,33:3
29,34:3
29,35:6
29,44:3
30,1:6
30,2:4
30,3:7
30,4:5
30,5:5
30,6:7
30,7:6
30,8:8
30,9:5
30,10:7
30,11:9
30,12:6
30,13:5
30,14:4
30,15:9
30,16:9
30,17:4
30,18:7
30,19:5
30,20:4
30,21:4
30,22:8
30,23:5
30,24:7
30,25:7
30,26:8
30,27:9
30,28:5
30,29:9
30,30:6
30,31:4
30,32:4
30,33:6
30,35:9
30,44:6
31,1:8
31,2:6
31,3:9
31,4:7
31,5:7
31,6:9
31,7:8
31,8:10
31,9:7
31,10:9
31,11:11
31,12:8
31,13:7
31,14:6
31,15:11
31,16:11
31,17:6
31,18:9
31,19:7
31,20:6
31,21:6
31,22:10
31,23:7
31,24:9
31,25:9
31,26:10
31,27:11
31,28:7
31,29:11
31,30:8
31,31:6
31,32:6
31,33:8
31,34:8
31,35:11
31,44:8
32,1:8
32,2:6
32,3:9
32,4:7
32,5:7
32,6:9
32,7:8
32,8:10
32,9:7
32,10:9
32,11:11
32,12:8
32,13:7
32,14:6
32,15:11
32,16:11
32,17:6
32,18:9
32,19:7
32,20:6
32,21:6
32,22:10
32,23:7
32,24:9
32,25:9
32,26:10
32,27:11
32,28:7
32,29:11
32,30:8
32,31:6
32,32:6
32,33:8
32,34:8
32,35:11
32,36:7
32,37:11
32,38:6
32,39:9
32,40:10
32,41:11
32,42:11
32,43:8
32,44:8
33,1:6
33,2:4
33,3:7
33,4:5
33,5:5
33,6:7
33,7:6
33,8:8
33,9:5
33,10:7
33,11:9
33,12:6
33,13:5
33,14:4
33,15:9
33,16:9
33,17:4
33,18:7
33,19:5
33,20:4
33,21:4
33,22:8
33,23:5
33,24:7
33,25:7
33,26:8
33,27:9
33,28:5
33,29:9
33,30:6
33,31:4
33,32:4
33,33:6
33,34:6
33,36:5
33,37:9
33,38:4
33,39:7
33,40:8
33,41:9
33,42:9
33,44:6
34,1:6
34,2:4
34,3:7
34,4:5
34,5:5
34,6:7
34,7:6
34,8:8
34,9:5
34,10:7
34,11:9
34,12:6
34,13:5
34,14:4
34,15:9
34,16:9
34,17:4
34,18:7
34,19:5
34,20:4
34,21:4
34,22:8
34,23:5
34,24:7
34,25:7
34,26:8
34,27:9
34,28:5
34,29:9
34,30:6
34,31:4
34,32:4
34,33:6
34,34:6
34,35:9
34,44:6
35,1:3
35,2:1
35,3:4
35,4:2
35,5:2
35,6:4
35,7:3
35,8:5
35,9:2
35,10:4
35,11:6
35,12:3
35,13:2
35,14:1
35,15:6
35,16:6
35,17:1
35,18:4
35,19:2
35,20:1
35,21:1
35,22:5
35,23:2
35,24:4
35,25:4
35,26:5
35,27:6
35,28:2
35,29:6
35,30:3
35,31:1
35,32:1
35,33:3
35,34:3
35,35:6
35,36:2
35,37:6
35,38:1
35,39:4
35,40:5
35,41:6
35,42:6
35,44:3
36,1:7
36,2:5
36,3:8
36,4:6
36,5:6
36,6:8
36,7:7
36,8:9
36,9:6
36,10:8
36,11:10
36,12:7
36,13:6
36,14:5
36,15:10
36,16:10
36,17:5
36,18:8
36,19:6
36,20:5
36,21:5
36,22:9
36,23:6
36,24:8
36,25:8
36,26:9
36,27:10
36,28:6
36,29:10
36,30:7
36,31:5
36,32:5
36,33:7
36,34:7
36,35:10
36,36:6
36,44:7
37,1:3
37,2:1
37,3:4
37,4:2
37,5:2
37,6:4
37,7:3
37,8:5
37,9:2
37,10:4
37,11:6
37,12:3
37,13:2
37,14:1
37,15:6
37,16:6
37,17:1
37,18:4
37,19:2
37,20:1
37,21:1
37,22:5
37,23:2
37,24:4
37,25:4
37,26:5
37,27:6
37,28:2
37,29:6
37,30:3
37,31:1
37,32:1
37,33:3
37,34:3
37,35:6
37,36:2
37,37:6
37,38:1
37,44:3
38,1:8
38,2:6
38,3:9
38,4:7
38,5:7
38,6:9
38,7:8
38,8:10
38,9:7
38,10:9
38,11:11
38,12:8
38,13:7
38,14:6
38,15:11
38,16:11
38,17:6
38,18:9
38,19:7
38,20:6
38,21:6
38,22:10
38,23:7
38,24:9
38,25:9
38,26:10
38,27:11
38,28:7
38,29:11
38,30:8
38,31:6
38,32:6
38,33:8
38,34:8
38,35:11
38,36:7
38,37:11
38,38:6
38,39:9
38,40:10
38,41:11
38,42:11
38,43:8
38,44:8
38,45:9
38,46:7
38,47:10
38,48:10
38,49:9
38,50:7
38,51:8
39,1:5
39,2:3
39,3:6
39,4:4
39,5:4
39,6:6
39,7:5
39,8:7
39,9:4
39,10:6
39,11:8
39,12:5
39,13:4
39,14:3
39,15:8
39,16:8
39,17:3
39,18:6
39,19:4
39,20:3
39,21:3
39,22:7
39,23:4
39,24:6
39,25:6
39,26:7
39,27:8
39,28:4
39,29:8
39,30:5
39,31:3
39,32:3
39,33:5
39,34:5
39,35:8
39,36:4
39,37:8
39,38:3
39,39:6
39,40:7
39,41:8
39,42:8
39,44:5
40,1:4
40,2:2
40,3:5
40,4:3
40,5:3
40,6:5
40,7:4
40,8:6
40,9:3
40,10:5
40,11:7
40,12:4
40,13:3
40,14:2
40,15:7
40,16:7
40,17:2
40,18:5
40,19:3
40,20:2
40,21:2
40,22:6
40,23:3
40,24:5
40,25:5
40,26:6
40,27:7
40,28:3
40,29:7
40,30:4
40,31:2
40,32:2
40,33:4
40,34:4
40,35:7
40,36:3
40,37:7
40,38:2
40,39:5
40,40:6
40,41:7
40,42:7
40,44:4
41,1:3
41,2:1
41,3:4
41,4:2
41,5:2
41,6:4
41,7:3
41,8:5
41,9:2
41,10:4
41,11:6
41,12:3
41,13:2
41,14:1
41,15:6
41,16:6
41,17:1
41,18:4
41,19:2
41,20:1
41,21:1
41,22:5
41,23:2
41,24:4
41,25:4
41,26:5
41,27:6
41,28:2
41,29:6
41,30:3
41,31:1
41,32:1
41,33:3
41,34:3
41,35:6
41,36:2
41,37:6
41,38:1
41,39:4
41,40:5
41,41:6
41,44:3
42,1:3
42,2:1
42,3:4
42,4:2
42,5:2
42,6:4
42,7:3
42,8:5
42,9:2
42,10:4
42,11:6
42,12:3
42,13:2
42,14:1
42,15:6
42,16:6
42,17:1
42,18:4
42,19:2
42,20:1
42,21:1
42,22:5
42,23:2
42,24:4
42,25:4
42,26:5
42,27:6
42,28:2
42,29:6
42,30:3
42,31:1
42,32:1
42,33:3
42,34:3
42,35:6
42,36:2
42,37:6
42,38:1
42,39:4
42,40:5
42,41:6
42,42:6
42,44:3
43,1:6
43,2:4
43,3:7
43,4:5
43,5:5
43,6:7
43,7:6
43,8:8
43,9:5
43,10:7
43,11:9
43,12:6
43,13:5
43,14:4
43,15:9
43,16:9
43,17:4
43,18:7
43,19:5
43,20:4
43,21:4
43,22:8
43,23:5
43,24:7
43,25:7
43,26:8
43,27:9
43,28:5
43,29:9
43,30:6
43,31:4
43,32:4
43,33:6
43,34:6
43,35:9
43,36:5
43,37:9
43,38:4
43,39:7
43,40:8
43,41:9
43,42:9
43,43:6
43,44:6
44,1:6
44,2:4
44,3:7
44,4:5
44,5:5
44,6:7
44,7:6
44,8:8
44,9:5
44,10:7
44,11:9
44,12:6
44,13:5
44,14:4
44,15:9
44,16:9
44,17:4
44,18:7
44,19:5
44,20:4
44,21:4
44,22:8
44,23:5
44,24:7
44,25:7
44,26:8
44,27:9
44,28:5
44,29:9
44,30:6
44,31:4
44,32:4
44,33:6
44,34:6
44,35:9
44,36:5
44,37:9
44,38:4
44,39:7
44,40:8
44,41:9
44,42:9
44,43:6
44,44:6
45,1:5
45,2:3
45,3:6
45,4:4
45,5:4
45,6:6
45,7:5
45,8:7
45,9:4
45,10:6
45,11:8
45,12:5
45,13:4
45,14:3
45,15:8
45,16:8
45,17:3
45,18:6
45,19:4
45,20:3
45,21:3
45,22:7
45,23:4
45,24:6
45,25:6
45,26:7
45,27:8
45,28:4
45,29:8
45,30:5
45,31:3
45,32:3
45,33:5
45,34:5
45,35:8
45,36:4
45,37:8
45,38:3
45,39:6
45,40:7
45,41:8
45,42:8
45,43:5
45,44:5
45,45:6
46,1:7
46,2:5
46,3:8
46,4:6
46,5:6
46,6:8
46,7:7
46,8:9
46,9:6
46,10:8
46,11:10
46,12:7
46,13:6
46,14:5
46,15:10
46,16:10
46,17:5
46,18:8
46,19:6
46,20:5
46,21:5
46,22:9
46,23:6
46,24:8
46,25:8
46,26:9
46,27:10
46,28:6
46,29:10
46,30:7
46,31:5
46,32:5
46,33:7
46,34:7
46,35:10
46,36:6
46,37:10
46,38:5
46,39:8
46,40:9
46,41:10
46,42:10
46,43:7
46,44:7
46,45:8
46,46:6
46,48:9
46,49:8
47,1:4
47,2:2
47,3:5
47,4:3
47,5:3
47,6:5
47,7:4
47,8:6
47,9:3
47,10:5
47,11:7
47,12:4
47,13:3
47,14:2
47,15:7
47,16:7
47,17:2
47,18:5
47,19:3
47,20:2
47,21:2
47,22:6
47,23:3
47,24:5
47,25:5
47,26:6
47,27:7
47,28:3
47,29:7
47,30:4
47,31:2
47,32:2
47,33:4
47,34:4
47,35:7
47,36:3
47,37:7
47,38:2
47,39:5
47,40:6
47,41:7
47,42:7
47,43:4
47,44:4
47,45:5
47,46:3
47,47:6
47,48:6
47,49:5
47,50:3
48,1:4
48,2:2
48,3:5
48,4:3
48,5:3
48,6:5
48,7:4
48,8:6
48,9:3
48,10:5
48,11:7
48,12:4
48,13:3
48,14:2
48,15:7
48,16:7
48,17:2
48,18:5
48,19:3
48,20:2
48,21:2
48,22:6
48,23:3
48,24:5
48,25:5
48,26:6
48,27:7
48,28:3
48,29:7
48,30:4
48,31:2
48,32:2
48,33:4
48,34:4
48,35:7
48,36:3
48,37:7
48,38:2
48,39:5
48,40:6
48,41:7
48,42:7
48,43:4
48,44:4
48,45:5
48,46:3
48,47:6
48,48:6
48,49:5
48,50:3
48,51:4
48,52:6
48,53:4
48,54:7
48,56:2
49,1:5
49,2:3
49,3:6
49,4:4
49,5:4
49,6:6
49,7:5
49,8:7
49,9:4
49,10:6
49,11:8
49,12:5
49,13:4
49,14:3
49,15:8
49,16:8
49,17:3
49,18:6
49,19:4
49,20:3
49,21:3
49,22:7
49,23:4
49,24:6
49,25:6
49,26:7
49,27:8
49,28:4
49,29:8
49,30:5
49,31:3
49,32:3
49,33:5
49,34:5
49,35:8
49,36:4
49,37:8
49,38:3
49,39:6
49,40:7
49,41:8
49,42:8
49,43:5
49,44:5
49,45:6
49,46:4
49,47:7
49,48:7
49,49:6
49,50:4
49,51:5
49,52:7
49,53:5
49,54:8
49,55:4
49,56:3
49,57:6
50,1:7
50,2:5
50,3:8
50,4:6
50,5:6
50,6:8
50,7:7
50,8:9
50,9:6
50,10:8
50,11:10
50,12:7
50,13:6
50,14:5
50,15:10
50,16:10
50,17:5
50,18:8
50,19:6
50,20:5
50,21:5
50,22:9
50,23:6
50,24:8
50,25:8
50,26:9
50,27:10
50,28:6
50,29:10
50,30:7
50,31:5
50,32:5
50,33:7
50,34:7
50,35:10
50,36:6
50,37:10
50,38:5
50,39:8
50,40:9
50,41:10
50,42:10
50,43:7
50,44:7
50,45:8
50,46:6
50,47:9
50,48:9
50,49:8
50,50:6
50,51:7
50,52:9
50,53:7
50,54:10
50,55:6
50,56:5
50,57:8
51,1:6
51,2:4
51,3:7
51,4:5
51,5:5
51,6:7
51,7:6
51,8:8
51,9:5
51,10:7
51,11:9
51,12:6
51,13:5
51,14:4
51,15:9
51,16:9
51,17:4
51,18:7
51,19:5
51,20:4
51,21:4
51,22:8
51,23:5
51,24:7
51,25:7
51,26:8
51,27:9
51,28:5
51,29:9
51,30:6
51,31:4
51,32:4
51,33:6
51,34:6
51,35:9
51,36:5
51,37:9
51,38:4
51,39:7
51,40:8
51,41:9
51,42:9
51,43:6
51,44:6
51,45:7
51,46:5
51,47:8
51,48:8
51,49:7
51,50:5
51,51:6
52,1:4
52,2:2
52,3:5
52,4:3
52,5:3
52,6:5
52,7:4
52,8:6
52,9:3
52,10:5
52,11:7
52,12:4
52,13:3
52,14:2
52,15:7
52,16:7
52,17:2
52,18:5
52,19:3
52,20:2
52,21:2
52,22:6
52,23:3
52,24:5
52,25:5
52,26:6
52,27:7
52,28:3
52,29:7
52,30:4
52,31:2
52,32:2
52,33:4
52,34:4
52,35:7
52,36:3
52,37:7
52,38:2
52,39:5
52,40:6
52,41:7
52,42:7
52,43:4
52,44:4
52,45:5
52,46:3
52,47:6
52,48:6
52,49:5
52,50:3
52,51:4
52,52:6
53,1:6
53,2:4
53,3:7
53,4:5
53,5:5
53,6:7
53,7:6
53,8:8
53,9:5
53,10:7
53,11:9
53,12:6
53,13:5
53,14:4
53,15:9
53,16:9
53,17:4
53,18:7
53,19:5
53,20:4
53,21:4
53,22:8
53,23:5
53,24:7
53,25:7
53,26:8
53,27:9
53,28:5
53,29:9
53,30:6
53,31:4
53,32:4
53,33:6
53,34:6
53,35:9
53,36:5
53,37:9
53,38:4
53,39:7
53,40:8
53,41:9
53,42:9
53,43:6
53,44:6
53,45:7
53,46:5
53,47:8
53,48:8
53,49:7
53,50:5
53,51:6
53,52:8
53,53:6
54,1:3
54,2:1
54,3:4
54,4:2
54,5:2
54,6:4
54,7:3
54,8:5
54,9:2
54,10:4
54,11:6
54,12:3
54,13:2
54,14:1
54,15:6
54,16:6
54,17:1
54,18:4
54,19:2
54,20:1
54,21:1
54,22:5
54,23:2
54,24:4
54,25:4
54,26:5
54,27:6
54,28:2
54,29:6
54,30:3
54,31:1
54,32:1
54,33:3
54,34:3
54,35:6
54,36:2
54,37:6
54,38:1
54,39:4
54,40:5
54,41:6
54,42:6
54,43:3
54,44:3
54,45:4
54,46:2
54,47:5
54,48:5
54,49:4
54,50:2
54,51:3
54,52:5
54,53:3
54,54:6
55,1:7
55,2:5
55,3:8
55,4:6
55,5:6
55,6:8
55,7:7
55,8:9
55,9:6
55,10:8
55,11:10
55,12:7
55,13:6
55,14:5
55,15:10
55,16:10
55,17:5
55,18:8
55,19:6
55,20:5
55,21:5
55,22:9
55,23:6
55,24:8
55,25:8
55,26:9
55,27:10
55,28:6
55,29:10
55,30:7
55,31:5
55,32:5
55,33:7
55,34:7
55,35:10
55,36:6
55,37:10
55,38:5
55,39:8
55,40:9
55,41:10
55,42:10
55,43:7
55,44:7
55,45:8
55,46:6
55,47:9
55,48:9
55,49:8
55,50:6
55,51:7
55,52:9
55,53:7
55,54:10
55,55:6
55,56:5
56,1:8
56,2:6
56,3:9
56,4:7
56,5:7
56,6:9
56,7:8
56,8:10
56,9:7
56,10:9
56,11:11
56,12:8
56,13:7
56,14:6
56,15:11
56,16:11
56,17:6
56,18:9
56,19:7
56,20:6
56,21:6
56,22:10
56,23:7
56,24:9
56,25:9
56,26:10
56,27:11
56,28:7
56,29:11
56,30:8
56,31:6
56,32:6
56,33:8
56,34:8
56,35:11
56,36:7
56,37:11
56,38:6
56,39:9
56,40:10
56,41:11
56,42:11
56,43:8
56,44:8
56,45:9
56,46:7
56,47:10
56,48:10
56,49:9
56,50:7
56,51:8
56,52:10
56,53:8
56,54:11
56,55:7
56,56:6
57,1:5
57,2:3
57,3:6
57,4:4
57,5:4
57,6:6
57,7:5
57,8:7
57,9:4
57,10:6
57,11:8
57,12:5
57,13:4
57,14:3
57,15:8
57,16:8
57,17:3
57,18:6
57,19:4
57,20:3
57,21:3
57,22:7
57,23:4
57,24:6
57,25:6
57,26:7
57,27:8
57,28:4
57,29:8
57,30:5
57,31:3
57,32:3
57,33:5
57,34:5
57,35:8
57,36:4
57,37:8
57,38:3
57,39:6
57,40:7
57,41:8
57,42:8
57,43:5
57,44:5
57,45:6
57,46:4
57,47:7
57,48:7
57,49:6
57,50:4
57,51:5
57,52:7
57,53:5
57,54:8
57,55:4
57,56:3
57,57:6
58,1:3
58,2:1
58,3:4
58,4:2
58,5:2
58,6:4
58,7:3
58,8:5
58,9:2
58,10:4
58,11:6
58,12:3
58,13:2
58,14:1
58,15:6
58,16:6
58,17:1
58,18:4
58,19:2
58,20:1
58,21:1
58,22:5
58,23:2
58,24:4
58,25:4
58,26:5
58,27:6
58,28:2
58,29:6
58,30:3
58,31:1
58,32:1
58,33:3
58,34:3
58,35:6
58,36:2
58,37:6
58,38:1
58,39:4
58,40:5
58,41:6
58,42:6
58,43:3
58,44:3
58,45:4
58,46:2
58,47:5
58,48:5
58,49:4
58,50:2
58,51:3
58,52:5
58,53:3
58,54:6
58,55:2
58,56:1
58,57:4
58,58:6

<end>

<optimal SALBP-1 value>
23


<rand seed>
467321153

<Lower Bounds>
Lm1=22
Lms1=22
Lm2=16
Lm3=18
Lm4=22
Best=22

<Optimal Stations (Iterations: 10)>
31
